p edge 32 128
e 1 19
e 1 19
e 1 23
e 1 30
e 2 5
e 2 13
e 2 26
e 2 32
e 3 14
e 3 14
e 3 16
e 3 27
e 4 14
e 4 17
e 4 21
e 4 27
e 5 3
e 5 11
e 5 14
e 5 19
e 6 4
e 6 13
e 6 19
e 6 22
e 7 15
e 7 17
e 7 18
e 7 24
e 8 6
e 8 12
e 8 25
e 8 29
e 9 1
e 9 3
e 9 11
e 9 30
e 10 12
e 10 16
e 10 26
e 10 29
e 11 1
e 11 2
e 11 6
e 11 17
e 12 14
e 12 19
e 12 20
e 12 31
e 13 10
e 13 15
e 13 30
e 13 32
e 14 3
e 14 11
e 14 15
e 14 26
e 15 13
e 15 13
e 15 22
e 15 30
e 16 2
e 16 2
e 16 2
e 16 5
e 17 8
e 17 8
e 17 19
e 17 25
e 18 8
e 18 13
e 18 30
e 18 31
e 19 4
e 19 10
e 19 28
e 19 32
e 20 3
e 20 14
e 20 25
e 20 25
e 21 10
e 21 10
e 21 16
e 21 30
e 22 10
e 22 26
e 22 28
e 22 29
e 23 11
e 23 20
e 23 27
e 23 29
e 24 4
e 24 13
e 24 20
e 24 30
e 25 2
e 25 9
e 25 11
e 25 18
e 26 4
e 26 12
e 26 19
e 26 24
e 27 11
e 27 11
e 27 17
e 27 30
e 28 18
e 28 22
e 28 24
e 28 27
e 29 1
e 29 7
e 29 22
e 29 27
e 30 3
e 30 19
e 30 21
e 30 26
e 31 3
e 31 6
e 31 13
e 31 17
e 32 13
e 32 22
e 32 23
e 32 30
